5591
5597
5555
5613
5486
5546
5690
5599
5598
5578
5618
5694
5585
5562
5617
5556
5553
5622
5611
5605
5594
5587
5529
5535
5566
5603
5585
5584
5648
5574
5650
5624
5533
5565
5607
5600
5652
5534
5511
5624
5658
5606
5553
5675
5610
5615
5555
5589
5609
5611
5600
5590
5557
5552
5480
5482
5503
5609
5566
5651
5650
5553
5613
5565
5629
5588
5554
5457
5665
5606
5637
5563
5669
5624
5605
5625
5534
5545
5594
5492
5628
5555
5557
5671
5624
5604
5538
5553
5622
5616
5662
5616
5619
5585
5583
5653
5603
5546
5700
5563
